prioritizeCVC4/t19/synthesized.patch.sygus

(set-logic  LIA)
(
synth-fun f_82-17-82-60 ( (MC_741360 Int)) Bool
	((Start Bool (
(>= IntExpr IntExpr)
(> IntExpr IntExpr)



))
(IntExpr Int (
MC_741360 
0 1
))

	)
)
(declare-var MC_741360_82-17-82-60 Int)

(constraint   (and (=> (= MC_741360_82-17-82-60 1) (= (f_82-17-82-60 MC_741360_82-17-82-60 ) true)) (=> (= MC_741360_82-17-82-60 1) (= (f_82-17-82-60 MC_741360_82-17-82-60 ) true))) )

(check-synth)
