prioritizeCVC4/t19/synthesized.patch.sygus.output
(define-fun f_82-17-82-60 (BOUND_VAR_LIST MC_741360) (TYPE_CONSTANT Boolean type) ((BUILTIN GEQ) MC_741360 MC_741360))
